<number of tasks>
100

<cycle time>
1000

<order strength>
0.598


<task times>
1 543
2 67
3 90
4 301
5 442
6 140
7 210
8 297
9 38
10 33
11 156
12 49
13 55
14 308
15 441
16 65
17 175
18 229
19 48
20 568
21 308
22 131
23 120
24 479
25 534
26 522
27 54
28 467
29 294
30 326
31 560
32 253
33 493
34 141
35 108
36 469
37 252
38 261
39 175
40 262
41 217
42 230
43 60
44 538
45 478
46 170
47 220
48 45
49 153
50 165
51 136
52 98
53 480
54 541
55 533
56 335
57 230
58 174
59 309
60 264
61 157
62 101
63 102
64 504
65 493
66 64
67 487
68 236
69 69
70 512
71 215
72 454
73 212
74 474
75 124
76 31
77 318
78 189
79 392
80 327
81 526
82 124
83 131
84 103
85 265
86 70
87 334
88 275
89 442
90 109
91 186
92 60
93 135
94 90
95 74
96 216
97 165
98 198
99 104
100 451

<precedence relations>
1,6
1,7
1,9
1,13
2,7
2,8
2,10
2,14
3,17
3,18
3,19
3,20
4,7
4,8
4,9
4,12
4,13
4,14
5,7
5,8
5,9
5,10
5,11
5,12
5,13
5,14
6,15
7,16
7,17
7,18
7,19
7,20
8,16
8,17
8,18
8,19
8,20
9,16
9,17
9,18
9,19
9,20
10,16
10,17
10,18
10,19
10,20
11,16
11,17
11,18
11,19
11,20
12,16
12,17
12,18
12,19
12,20
13,16
13,17
13,18
13,19
13,20
14,16
14,17
14,18
14,19
14,20
15,21
16,22
16,23
16,24
16,25
16,26
17,23
17,24
17,25
17,26
18,23
18,24
18,25
18,26
19,23
19,24
19,25
19,26
20,23
20,24
20,25
20,26
21,27
22,29
23,28
23,30
23,31
24,30
24,31
25,30
25,31
26,30
26,31
27,33
28,32
29,34
30,34
30,35
30,36
30,37
31,34
31,35
31,36
31,37
32,39
33,38
34,40
34,41
34,42
34,43
34,44
35,41
35,42
35,43
35,44
36,41
36,42
36,43
36,44
37,41
37,42
37,43
37,44
38,46
39,45
40,47
41,48
41,49
41,50
41,51
42,49
42,50
42,51
43,49
43,50
43,51
44,49
44,50
44,51
45,59
46,54
47,56
48,58
49,52
49,53
49,55
49,57
49,59
49,60
50,59
50,60
51,90
51,94
52,61
53,62
54,64
55,63
56,66
57,65
58,67
59,66
60,66
60,67
61,68
62,69
63,71
64,70
65,71
66,72
67,88
67,89
68,73
69,75
70,74
71,76
71,77
72,77
72,78
73,79
74,81
75,80
76,82
77,84
77,85
77,92
78,83
78,84
79,86
80,87
81,88
82,89
83,88
83,90
83,94
84,89
85,93
86,91
87,92
88,93
88,97
89,93
89,94
90,92
91,95
92,96
92,97
93,96
94,95
94,96
94,97
95,99
96,98
96,99
96,100

<end>
